branch-and-cut/resultados/B/b06.sol
122
36
30 43
50 46
31 20
24 42
6 27
40 35
36 16
14 16
28 6
18 41
9 17
12 40
4 36
44 35
7 13
49 43
36 24
27 21
14 27
1 11
24 19
49 12
4 50
48 16
6 13
30 47
32 38
32 44
10 41
49 27
9 6
23 35
31 42
5 20
11 18
14 41
